language Essence 1.3

letting class be function(1 --> 2, 2 --> 2, 3 --> 2, 4 --> 1, 5 --> 1, 6 --> 2, 7 --> 2)
letting deck_length be 79
letting deck_width be 77
letting length be function(1 --> 38, 2 --> 15, 3 --> 71, 4 --> 10, 5 --> 16, 6 --> 45, 7 --> 18)
letting n_classes be 2
letting n_containers be 7
letting separation be function({1, 2} --> 48)
letting width be function(1 --> 51, 2 --> 39, 3 --> 4, 4 --> 51, 5 --> 59, 6 --> 1, 7 --> 8)
